echo

start molecule

title "test"
charge 0

geometry units angstroms print xyz autosym
C      0.70218    0.24544   -0.04341
C      0.46511   -1.07936    0.00381
N     -0.79875   -1.60378    0.08517
C     -1.95114   -0.83830    0.12654
N     -1.68590    0.51392    0.07752
C     -0.43862    1.15114   -0.00608
O     -3.06701   -1.31769    0.19737
C      2.06570    0.83630   -0.13268
O     -0.37232    2.36989   -0.04195
H      1.26275   -1.80795   -0.01988
H     -0.94529   -2.59776    0.11830
H     -2.49242    1.11979    0.10416
H      2.83198    0.06466   -0.14638
H      2.25614    1.50069    0.70912
H      2.16760    1.44300   -1.03160
end

basis
  * library 6-31+G*
end

dft
  xc b3lyp
  mult 1
end

task dft energy
